data/mip_solutions/furman_sahinidis/transshipment/4sp1_cplex.sol
Elapsed time: 0.0229759216309
Nodes explored: 0
Upper bound: 5.0
Lower bound: 5.0
y[0,0]=1
y[0,2]=1
y[1,0]=1
y[1,1]=1
y[2,1]=1
q[0,0,2]=1011.5
q[0,0,3]=241.4
q[0,2,4]=747.5
q[1,0,1]=144.5
q[1,0,3]=1203.6
q[1,1,1]=1844.8
q[1,1,2]=807.1
q[2,1,0]=345.9
r[0,3]=155.4
r[0,4]=747.5
r[1,2]=1210.7
r[1,3]=1203.6
